(set-option :produce-models true)
(set-logic QF_UF)
(declare-fun p69() Bool)
(declare-fun p26() Bool)
(declare-fun p36() Bool)
(declare-fun p53() Bool)
(declare-fun p7() Bool)
(declare-fun p66() Bool)
(declare-fun p24() Bool)
(declare-fun p55() Bool)
(declare-fun p20() Bool)
(declare-fun p98() Bool)
(declare-fun p68() Bool)
(declare-fun p71() Bool)
(declare-fun p58() Bool)
(declare-fun p99() Bool)
(declare-fun p14() Bool)
(declare-fun p1() Bool)
(declare-fun p51() Bool)
(declare-fun p0() Bool)
(declare-fun p6() Bool)
(declare-fun p94() Bool)
(declare-fun p87() Bool)
(declare-fun p78() Bool)
(declare-fun p16() Bool)
(declare-fun p32() Bool)
(declare-fun p25() Bool)
(declare-fun p72() Bool)
(declare-fun p63() Bool)
(declare-fun p73() Bool)
(declare-fun p85() Bool)
(declare-fun p13() Bool)
(declare-fun p67() Bool)
(declare-fun p83() Bool)
(declare-fun p5() Bool)
(declare-fun p61() Bool)
(declare-fun p62() Bool)
(declare-fun p91() Bool)
(declare-fun p48() Bool)
(declare-fun p97() Bool)
(declare-fun p37() Bool)
(declare-fun p86() Bool)
(declare-fun p75() Bool)
(declare-fun p95() Bool)
(declare-fun p89() Bool)
(declare-fun p27() Bool)
(declare-fun p43() Bool)
(declare-fun p49() Bool)
(declare-fun p44() Bool)
(declare-fun p2() Bool)
(declare-fun p41() Bool)
(declare-fun p77() Bool)
(declare-fun p56() Bool)
(declare-fun p22() Bool)
(declare-fun p19() Bool)
(declare-fun p65() Bool)
(declare-fun p11() Bool)
(declare-fun p82() Bool)
(declare-fun p54() Bool)
(declare-fun p15() Bool)
(declare-fun p42() Bool)
(declare-fun p47() Bool)
(declare-fun p3() Bool)
(declare-fun p31() Bool)
(declare-fun p23() Bool)
(declare-fun p35() Bool)
(declare-fun p64() Bool)
(declare-fun p30() Bool)
(declare-fun p60() Bool)
(declare-fun p50() Bool)
(declare-fun p29() Bool)
(declare-fun p96() Bool)
(declare-fun p9() Bool)
(declare-fun p52() Bool)
(declare-fun p59() Bool)
(declare-fun p79() Bool)
(declare-fun p10() Bool)
(declare-fun p33() Bool)
(declare-fun p57() Bool)
(declare-fun p84() Bool)
(declare-fun p74() Bool)
(declare-fun p93() Bool)
(declare-fun p34() Bool)
(declare-fun p90() Bool)
(declare-fun p40() Bool)
(declare-fun p80() Bool)
(declare-fun p70() Bool)
(declare-fun p45() Bool)
(declare-fun p81() Bool)
(declare-fun p38() Bool)
(declare-fun p21() Bool)
(declare-fun p17() Bool)
(declare-fun p12() Bool)
(declare-fun p88() Bool)
(declare-fun p8() Bool)
(declare-fun p18() Bool)
(declare-fun p39() Bool)
(declare-fun p92() Bool)
(declare-fun p28() Bool)
(declare-fun p76() Bool)
(declare-fun p46() Bool)
(declare-fun p4() Bool)
(assert
(and (or (not p69) p26 p36) (or p53 p7 p66) (or p24 (not p55) (not p20)) (or p98 p66 p24) (or p66 p68 (not p71)) (or p58 (not p99) (not p14)) (or (not p1) (not p51) (not p53)) (or (not p0) p6 p24) (or p68 (not p94) (not p87)) (or p99 (not p78) p94) (or (not p16) p32 p25) (or p72 (not p63) (not p73)) (or p99 (not p16) (not p6)) (or (not p85) p25 p13) (or p67 p83 (not p5)) (or p61 p62 (not p83)) (or p5 p91 (not p48)) (or (not p26) p97 (not p66)) (or p55 p37 (not p86)) (or p26 p72 p75) (or p95 p0 (not p0)) (or p89 p27 (not p43)) (or p24 (not p49) (not p44)) (or (not p2) (not p41) (not p77)) (or p56 p22 p19) (or (not p86) p5 p27) (or (not p58) p65 p2) (or p32 p14 p11) (or (not p43) p82 p16) (or p6 p54 (not p26)) (or p69 (not p63) (not p15)) (or (not p19) p42 p47) (or (not p3) p11 (not p98)) (or p63 p37 (not p31)) (or (not p11) (not p23) p35) (or p73 p37 p64) (or p30 p24 (not p41)) (or (not p23) p71 (not p42)) (or (not p58) p26 (not p41)) (or (not p69) p14 p41) (or (not p63) p15 (not p48)) (or (not p95) (not p60) p75) (or p50 p29 p72) (or p51 (not p91) p96) (or p96 p23 p62) (or (not p9) (not p73) p52) (or p65 p68 p89) (or p63 p91 p59) (or p44 (not p61) p79) (or p10 (not p15) p3) (or (not p33) p16 (not p63)) (or p31 p47 (not p57)) (or p30 p41 p50) (or (not p66) p86 (not p83)) (or (not p84) (not p68) (not p74)) (or (not p47) p93 (not p51)) (or (not p56) (not p51) (not p33)) (or (not p86) p93 p29) (or (not p59) p48 (not p34)) (or p59 p43 (not p13)) (or (not p15) (not p22) p63) (or p42 p47 p90) (or (not p98) (not p64) (not p65)) (or p48 p40 p80) (or p70 (not p16) p59) (or (not p89) (not p16) (not p86)) (or p24 p35 (not p45)) (or p11 (not p70) (not p78)) (or p47 (not p73) p57) (or p78 (not p97) p93) (or (not p69) (not p48) (not p71)) (or (not p74) (not p25) (not p31)) (or p26 p83 p14) (or p74 (not p53) (not p50)) (or (not p81) p73 p61) (or p33 (not p47) p11) (or (not p38) (not p22) (not p22)) (or p16 p1 (not p89)) (or p75 (not p0) (not p6)) (or (not p94) p81 p21) (or p55 p13 (not p67)) (or (not p17) (not p52) p91) (or p60 p12 p60) (or p97 p41 p70) (or (not p25) p96 p86) (or (not p26) p66 (not p37)) (or (not p72) p88 p72) (or (not p8) (not p18) (not p90)) (or (not p2) p50 p98) (or p71 p66 (not p30)) (or (not p39) (not p92) (not p63)) (or (not p98) (not p62) (not p21)) (or p90 p79 (not p48)) (or p9 p42 p59) (or (not p25) (not p28) (not p21)) (or p87 p99 (not p38)) (or (not p43) (not p99) (not p5)) (or (not p15) (not p58) (not p35)) (or p79 p22 (not p37)) (or p88 p89 (not p58)) (or p14 (not p69) p58) (or p54 p97 (not p88)) (or (not p70) (not p17) p48) (or (not p85) p7 (not p83)) (or (not p66) (not p87) (not p37)) (or p76 p77 p57) (or (not p73) (not p68) p23) (or (not p9) p40 (not p96)) (or (not p52) (not p68) (not p19)) (or (not p96) (not p50) (not p60)) (or (not p75) (not p17) p21) (or (not p37) p14 p41) (or p9 (not p29) p15) (or (not p85) (not p54) (not p31)) (or (not p51) (not p38) (not p15)) (or p21 p67 (not p28)) (or (not p42) p85 (not p7)) (or (not p64) (not p12) (not p76)) (or p68 (not p17) (not p67)) (or p51 (not p72) p87) (or p70 p70 p14) (or (not p72) (not p56) (not p23)) (or p38 (not p45) (not p67)) (or p34 (not p80) p68) (or (not p78) p9 p91) (or (not p49) p55 p65) (or (not p15) (not p93) (not p45)) (or (not p56) p13 p76) (or p42 p86 p45) (or p60 p60 p18) (or p64 p65 p44) (or p9 p82 p72) (or (not p45) p66 p65) (or p7 (not p46) p18) (or (not p28) p41 (not p3)) (or p0 (not p48) (not p43)) (or (not p98) p35 (not p69)) (or p72 p44 p86) (or p74 p30 p56) (or (not p39) (not p6) p45) (or p90 (not p89) (not p72)) (or p72 p15 (not p46)) (or p63 p60 p81) (or p59 p85 p24) (or (not p30) p3 (not p98)) (or p67 (not p55) (not p84)) (or p98 p49 p58) (or (not p97) (not p57) (not p93)) (or p38 (not p60) p31) (or (not p18) p70 (not p65)) (or (not p16) p80 (not p5)) (or (not p54) p88 (not p77)) (or (not p37) p77 p45) (or (not p98) (not p98) p95) (or (not p73) p66 p38) (or (not p10) p20 p75) (or p77 p92 (not p86)) (or (not p24) (not p35) (not p55)) (or (not p77) p38 (not p40)) (or (not p43) (not p67) (not p22)) (or p74 p46 p59) (or p97 (not p18) p83) (or p20 p24 p70) (or (not p21) p60 (not p20)) (or (not p69) (not p7) (not p61)) (or p53 p64 (not p8)) (or p88 (not p88) p16) (or p29 (not p37) p35) (or (not p51) p99 (not p87)) (or p47 p37 (not p55)) (or p73 (not p13) (not p50)) (or p4 p65 p75) (or p44 (not p89) p98) (or p41 (not p12) (not p55)) (or (not p8) (not p14) (not p98)) (or p46 p34 p41) (or p72 p24 (not p38)) (or (not p14) p61 (not p33)) (or (not p86) p62 (not p90)) (or p76 (not p35) (not p78)) (or p26 (not p30) (not p6)) (or (not p84) p84 p31) (or (not p15) (not p79) (not p96)) (or p79 p56 (not p57)) (or (not p46) p61 p63) (or (not p37) p90 p41) (or p47 (not p31) (not p98)) (or p98 (not p84) p72) (or p69 (not p9) (not p42)) (or (not p81) p77 p82) (or (not p64) p79 p15) (or p84 p26 p57) (or p95 (not p79) p79) (or (not p58) (not p39) p31) (or p14 (not p30) (not p27)) (or p68 (not p51) (not p30)) (or (not p43) (not p52) (not p42)) (or p44 p7 (not p78)) (or p62 p35 p76) (or (not p6) p20 (not p53)) (or (not p28) p98 p61) (or (not p68) p94 (not p26)) (or (not p89) (not p80) (not p90)) (or p3 (not p24) (not p34)) (or (not p2) p17 (not p13)) (or (not p77) p98 p31) (or (not p98) (not p41) (not p1)) (or p32 (not p49) p0) (or (not p56) (not p23) p62) (or (not p31) p77 p86) (or (not p50) (not p40) p2) (or (not p19) p8 (not p56)) (or (not p12) p46 p77) (or (not p52) p73 p79) (or (not p83) p11 p95) (or p87 (not p78) (not p50)) (or p14 (not p10) p80) (or p28 (not p87) (not p51)) (or (not p56) (not p6) (not p85)) (or (not p99) (not p70) p60) (or p48 (not p67) p97) (or (not p88) (not p69) p65) (or p67 p20 (not p52)) (or p35 p41 (not p20)) (or p14 p56 p69) (or p3 (not p85) (not p24)) (or (not p99) p52 p63) (or (not p43) (not p77) p13) (or p33 p94 p26) (or (not p81) p97 (not p84)) (or (not p26) p0 (not p42)) (or (not p4) p75 p60) (or (not p18) (not p97) p36) (or (not p5) (not p86) (not p90)) (or p2 (not p13) (not p79)) (or (not p65) p95 (not p86)) (or (not p4) (not p20) (not p0)) (or p66 (not p16) p81) (or (not p12) p94 p33) (or (not p22) p27 p38) (or p25 p62 (not p10)) (or (not p70) p8 (not p91)) (or (not p70) p12 p24) (or (not p8) (not p8) (not p25)) (or p98 p68 (not p24)) (or (not p76) (not p49) (not p45)) (or (not p2) p32 (not p19)) (or (not p30) (not p69) (not p60)) (or (not p73) (not p70) (not p84)) (or p24 (not p72) (not p68)) (or (not p56) p80 p40) (or (not p33) (not p90) p99) (or (not p80) p58 p27) (or p13 p60 (not p85)) (or p64 (not p33) (not p17)) (or (not p92) p92 p28) (or p3 (not p47) p58) (or p71 (not p7) p96) (or p57 (not p77) p45) (or (not p97) p80 p59) (or (not p93) p4 (not p38)) (or p6 p99 p37) (or p7 (not p24) p46) (or p91 p53 p29) (or p0 p0 p48) (or p75 (not p76) p47) (or p29 (not p44) p15) (or (not p57) (not p52) (not p71)) (or (not p34) p19 (not p7)) (or p10 p3 p22) (or (not p55) p66 (not p62)) (or (not p48) p98 p51) (or p68 (not p67) p77) (or p18 (not p32) (not p49)) (or (not p94) p21 p22) (or p39 p61 p58) (or (not p54) (not p9) (not p66)) (or p98 p24 p41) (or p93 p23 (not p55)) (or (not p80) p25 p92) (or (not p98) (not p35) p27) (or (not p85) p39 (not p13)) (or p20 p99 p99) (or (not p26) (not p77) p84) (or (not p43) p14 (not p83)) (or p52 p14 p10) (or (not p68) p50 p2) (or (not p62) (not p71) (not p60)) (or p17 (not p26) (not p92)) (or p14 (not p64) (not p54)) (or p38 (not p10) p50) (or (not p59) (not p17) p94) (or p53 p62 (not p1)) (or p85 (not p63) (not p50)) (or (not p98) p83 (not p57)) (or p31 (not p42) (not p86)) (or (not p95) (not p19) (not p65)) (or (not p17) (not p70) p22) (or p37 (not p98) (not p16)) (or p3 (not p17) p25) (or p25 p24 (not p67)) (or p27 (not p14) p42) (or p95 p19 (not p48)) (or (not p14) p72 p41) (or p76 (not p23) p25) (or (not p72) p98 (not p30)) (or p51 (not p8) (not p21)) (or (not p79) p29 p91) (or p82 p28 (not p39)) (or p12 p0 p18) (or (not p31) (not p58) p91) (or p85 (not p98) (not p1)) (or (not p70) p98 (not p97)) (or p86 p94 (not p36)) (or (not p67) (not p99) p45) (or (not p40) p19 (not p5)) (or p63 p4 (not p18)) (or (not p38) p33 (not p3)) (or p23 (not p43) (not p73)) (or p95 p10 (not p60)) (or p68 (not p22) p84) (or p86 (not p90) (not p66)) (or (not p46) (not p90) (not p86)) (or p28 (not p11) (not p32)) (or p47 p29 p69) (or p61 p88 p46) (or p91 p90 p21) (or (not p32) p18 (not p67)) (or p30 p77 p11) (or (not p13) p66 p53) (or (not p46) p86 (not p23)) (or (not p56) (not p22) (not p67)) (or p83 (not p17) (not p80)) (or (not p60) (not p18) p84) (or (not p76) (not p95) p28) (or (not p40) (not p0) p54) (or (not p75) (not p18) p17) (or (not p36) p14 p84) (or (not p43) (not p17) p85) (or (not p16) p89 (not p87)) (or (not p80) (not p25) p84) (or (not p81) (not p78) (not p44)) (or p30 p26 p95) (or p9 p24 (not p44)) (or (not p28) p95 p55) (or p32 (not p82) p95) (or p26 p19 p72) (or (not p39) p16 (not p77)) (or p58 p67 (not p48)) (or p89 p84 p9) (or (not p49) (not p52) p88) (or (not p57) p74 (not p61)) (or (not p50) (not p15) (not p31)) (or (not p65) (not p47) (not p44)) (or (not p71) p17 (not p29)) (or (not p12) p75 p79) (or p53 p39 (not p26)) (or (not p54) p7 (not p58)) (or (not p86) (not p91) p72) (or p86 (not p85) (not p62)) (or p30 p43 p99) (or (not p88) (not p93) (not p30)) (or (not p77) p77 (not p64)) (or (not p15) p61 (not p31)) (or p93 (not p22) (not p37)) (or p22 (not p49) p37) (or p82 (not p64) p77) (or p22 (not p34) (not p90)) (or p25 (not p23) p53) (or p25 (not p39) (not p78)) (or p37 p35 p5) (or p99 p68 p80) (or (not p34) p88 p53) (or (not p85) p36 (not p93)) (or p64 p60 (not p64)) (or p8 (not p71) (not p48)) (or (not p8) (not p30) (not p55)) (or p26 p75 (not p88)) (or p63 (not p56) p34) (or p2 p99 (not p63)) (or (not p47) (not p92) p4) (or (not p59) p64 p20) (or p90 (not p53) (not p86)) (or (not p9) (not p49) p10) (or p20 p44 (not p31)) (or (not p59) (not p48) p53) (or p31 (not p21) p62) (or p32 p81 (not p92)) (or p21 p90 p49) (or p96 p59 (not p34)) (or (not p51) (not p44) (not p14)) (or (not p52) p24 (not p70)) (or (not p74) (not p90) (not p11)) (or (not p93) p15 (not p96)) (or (not p88) (not p63) (not p6)) (or p53 (not p64) (not p28)) (or p79 (not p81) (not p55)) (or (not p63) p90 (not p68)) (or (not p68) (not p52) (not p19)) (or p52 p86 (not p92)) (or p7 (not p92) (not p61)) (or p92 (not p71) (not p99)) (or (not p58) (not p58) p11) (or (not p35) p19 p89) (or (not p50) (not p66) (not p37)) (or p92 (not p9) p39) (or p74 (not p38) (not p73)) (or (not p81) (not p84) (not p89)) (or p60 (not p58) p22) (or (not p42) (not p93) (not p73)) (or (not p60) p57 p32) (or p65 p21 p33) (or p57 p69 (not p62)) (or p7 p91 (not p79)) (or p13 p30 p63) (or p28 p33 p36) (or p40 (not p34) p10) (or p70 p5 (not p27)) (or (not p93) p56 p54) (or p88 (not p56) (not p83)))
)
(check-sat)
(get-model)
